7912
33, 6, 4, 43, 24, 48, 39, 40, 5, 36, 35, 10, 9, 15, 38, 37, 34, 44, 16, 29, 47, 26, 28, 27, 13, 14, 52, 11, 51, 12, 25, 46, 50, 20, 23, 30, 2, 7, 42, 21, 17, 3, 18, 31, 22, 1, 49, 32, 45, 19, 41, 8
